156
0 21 79 84 13 4 11 128 62 155 
53 1 139 132 152 86 92 5 49 42 
29 76 140 8 122 36 39 127 26 12 
116 102 146 113 88 83 120 103 51 40 
87 95 85 22 90 114 9 63 74 125 
124 109 10 115 135 67 15 37 82 119 
25 99 77 48 89 46 101 126 47 106 
16 154 43 97 32 14 96 129 138 111 
50 33 137 38 52 44 141 78 94 58 
69 65 107 133 57 3 144 98 145 31 
143 71 75 55 6 149 56 60 81 17 
28 66 147 142 34 2 134 123 35 153 
112 73 30 151 110 130 80 118 136 68 
105 121 104 41 100 18 19 59 20 23 
45 91 117 61 7 64 24 150 54 70 
93 72 131 27 108 148 
